solving instance mcf arcs c25_100_30_F_L_5 3 6 square
presolving:
(round 1, fast)       131 del vars, 126 del conss, 0 add conss, 130 chg bounds, 0 chg sides, 0 chg coeffs, 0 upgd conss, 0 impls, 0 clqs
(round 2, fast)       156 del vars, 126 del conss, 0 add conss, 130 chg bounds, 0 chg sides, 0 chg coeffs, 0 upgd conss, 0 impls, 0 clqs
   (0.0s) symmetry computation started: requiring (bin +, int +, cont +), (fixed: bin -, int -, cont -)
   (0.0s) no symmetry present (symcode time: 0.00)
presolving (3 rounds: 3 fast, 1 medium, 1 exhaustive):
 156 deleted vars, 126 deleted constraints, 0 added constraints, 130 tightened bounds, 0 added holes, 0 changed sides, 0 changed coefficients
 0 implications, 0 cliques
presolved problem has 3194 variables (0 bin, 0 int, 0 impl, 3194 cont) and 974 constraints
    874 constraints of type <linear>
    100 constraints of type <nonlinear>
Presolving Time: 0.03

 time | node  | left  |LP iter|LP it/n|mem/heur|mdpt |vars |cons |rows |cuts |sepa|confs|strbr|  dualbound   | primalbound  |  gap   | compl. 
  1.3s|     1 |     0 | 11325 |     - |    25M |   0 |3394 | 974 |1274 |   0 |  0 |   0 |   0 | 3.958724e+03 |      --      |    Inf | unknown
L 3.1s|     1 |     0 | 11325 |     - |  subnlp|   0 |3394 | 974 |1274 |   0 |  0 |   0 |   0 | 3.958724e+03 | 4.537725e+03 |  14.63%| unknown
  3.2s|     1 |     0 | 11774 |     - |    25M |   0 |3394 | 974 |1367 |  93 |  1 |   0 |   0 | 4.441965e+03 | 4.537725e+03 |   2.16%| unknown
  3.2s|     1 |     0 | 11774 |     - |    25M |   0 |3394 | 974 |1367 |  93 |  1 |   0 |   0 | 4.441965e+03 | 4.537725e+03 |   2.16%| unknown
  3.2s|     1 |     0 | 11968 |     - |    25M |   0 |3394 | 974 |1456 | 182 |  2 |   0 |   0 | 4.514442e+03 | 4.537725e+03 |   0.52%| unknown
  3.2s|     1 |     0 | 12080 |     - |    26M |   0 |3394 | 974 |1546 | 272 |  3 |   0 |   0 | 4.531385e+03 | 4.537725e+03 |   0.14%| unknown
  3.2s|     1 |     0 | 12184 |     - |    26M |   0 |3394 | 974 |1636 | 362 |  4 |   0 |   0 | 4.536133e+03 | 4.537725e+03 |   0.04%| unknown
  3.2s|     1 |     0 | 12273 |     - |    26M |   0 |3394 | 974 |1725 | 451 |  5 |   0 |   0 | 4.537360e+03 | 4.537725e+03 |   0.01%| unknown
  3.2s|     1 |     0 | 12373 |     - |    26M |   0 |3394 | 974 |1810 | 536 |  6 |   0 |   0 | 4.537619e+03 | 4.537725e+03 |   0.00%| unknown
  3.2s|     1 |     0 | 12467 |     - |    26M |   0 |3394 | 974 |1889 | 615 |  7 |   0 |   0 | 4.537697e+03 | 4.537725e+03 |   0.00%| unknown
  3.2s|     1 |     0 | 12535 |     - |    26M |   0 |3394 | 974 |1954 | 680 |  8 |   0 |   0 | 4.537718e+03 | 4.537725e+03 |   0.00%| unknown
  3.2s|     1 |     0 | 12592 |     - |    26M |   0 |3394 | 974 |2006 | 732 |  9 |   0 |   0 | 4.537722e+03 | 4.537725e+03 |   0.00%| unknown

SCIP Status        : solving was interrupted [gap limit reached]
Solving Time (sec) : 3.25
Solving Nodes      : 1
Primal Bound       : +4.53772491881836e+03 (2 solutions)
Dual Bound         : +4.53772193481475e+03
Gap                : 0.00 %
primal_bound = 4537.724918818357, dual_bound = 4537.721934814749, gap = 6.575990526293539e-5, time = 5.63
